n = 19;
lu = [|-260, 331
      |-344, 361
      |-274, -228
      |-112, 109
      |-194, 282
      |-131, 332
      |73, 312
      |134, 306
      |-326, 150
      |65, 276
      |-224, -137
      |60, 253
      |198, 317
      |48, 333
      |81, 143
      |-175, 330
      |-136, 203
      |109, 329
      |-259, 235|];
